% demand
num_movements = 43;
loading_factor = [1200, 2000, 1650, 900, 800, 1950, 1050, 1000, 950, 1800, 1950, 1400, 1900, 1150, 1150, 1700, 1500, 1350, 1150, 950, 1950, 1400, 1250, 1300, 1550, 1900, 800, 850, 1250, 2000, 1250, 1700, 1750, 1550, 1450, 900, 1600, 1300, 1000, 850, 1650, 1700, 1650];
pickup_time = [0, 0, 0, 1, 1, 1, 1, 1, 1, 1, 2, 3, 4, 5, 5, 5, 5, 5, 5, 5, 6, 7, 7, 7, 7, 7, 7, 7, 8, 8, 8, 8, 9, 9, 9, 10, 10, 10, 10, 10, 10, 11, 11];
delivery_time = [1, 2, 1, 2, 5, 5, 2, 4, 5, 4, 5, 5, 5, 6, 6, 6, 6, 6, 6, 6, 8, 8, 9, 8, 8, 8, 10, 8, 10, 10, 10, 9, 10, 10, 10, 12, 12, 12, 12, 12, 12, 12, 12];

% transporter definition
total_capacity = 11000;
num_decks = 4;
capacity = [3000, 3000, 1000, 4000];

% ways out of decks
num_ways_out = 2;
paths_out = array3d(decks, ways_out, decks, [
% ways out of deck d1
2, 4, 0, 0, 3, 4, 0, 0, 

% ways out of deck d2
4, 0, 0, 0, 0, 0, 0, 0,	

% ways out of deck d3
4, 0, 0, 0, 0, 0, 0, 0,	

% ways out of deck d4
0, 0, 0, 0,	0, 0, 0, 0,	

]);

